; ./vmt/./conc/szymanski_safe_000.smt2
(set-logic HORN)

(declare-fun |state| ( Bool Bool Bool Bool Int Bool Bool Bool Bool Int ) Bool)

(assert
  (forall ( (A Int) (B Bool) (C Bool) (D Bool) (E Bool) (F Bool) (G Bool) (H Bool) (I Bool) (J Int) ) 
    (=>
      (and
        (and (= A 0)
     (or (not H) (not I))
     (or (not D) (not E))
     (not I)
     (not H)
     (not G)
     (not F)
     (not E)
     (not D)
     (not C)
     (not B)
     (= J 0))
      )
      (state E D I H J G F C B A)
    )
  )
)
(assert
  (forall ( (A Bool) (B Bool) (C Bool) (D Int) (E Bool) (F Bool) (G Bool) (H Bool) (I Bool) (J Bool) (K Int) (L Bool) (M Int) (N Bool) (O Bool) (P Bool) (Q Bool) (R Bool) (S Bool) (T Bool) (U Bool) (V Int) ) 
    (=>
      (and
        (state Q P U T V S R O N M)
        (let ((a!1 (and (or (not (<= 3 M)) (and (not F) (not C) (not B) A))
                (or (<= 3 M) (and (not F) (not C) B (not A)))
                (= V D)))
      (a!2 (and (or (not (= M 1)) (and C (not B) (not A)))
                (or (= M 1) (and C B (not A)))
                (= V D)))
      (a!3 (and (or (and (<= M 3) (<= 2 M)) (and F (not C) B (not A)))
                (or (not (<= 2 M)) (not (<= M 3)) (and F (not C) (not B) A))
                (= V D)))
      (a!4 (and (or (<= 3 V) (and (not J) I (not H) (not G)))
                (or (not (<= 3 V)) (and J (not I) (not H) (not G)))
                (= M K)))
      (a!5 (and (or (not (= V 1)) (and (not J) (not I) G))
                (or (= V 1) (and (not J) I G))
                (= M K)))
      (a!6 (and (or (and (<= V 3) (<= 2 V)) (and (not J) I H (not G)))
                (or (not (<= 2 V)) (not (<= V 3)) (and J (not I) H (not G)))
                (= M K)))
      (a!7 (and (or (not (<= 2 M)) (and C B A))
                (or (<= 2 M) (and F (not C) (not B) (not A)))
                (= V D)))
      (a!8 (and (or (= M 4) (and C (not B) A))
                (or (not (= M 4)) (and C B (not A)))
                (= V D)))
      (a!9 (and (or (not (<= 2 V)) (and J I G))
                (or (<= 2 V) (and (not J) (not I) H (not G)))
                (= M K)))
      (a!10 (and (or (not (= V 4)) (and (not J) I G))
                 (or (= V 4) (and J (not I) G))
                 (= M K))))
  (and (or T (not R) (not S) (not U) (not E) (and F (not C) B A (= V D)))
       (or R S T (not U) (not E) (and F (not C) (not B) A (= V D)))
       (or R T U (not S) (not E) (and (not F) (not C) B A (= D 3)))
       (or R S T U (not E) (and (not F) (not C) (not B) A (= D 1)))
       (or R T (not S) (not U) (not E) (and F (not C) B A (= D 0)))
       (or S T U (not R) (not E) a!1)
       (or T U (not R) (not S) (not E) a!2)
       (or S T (not R) (not U) (not E) a!3)
       (or Q (not N) (not O) (not P) (not L) (and J I H (not G) (= M K)))
       (or N O Q (not P) (not L) (and J (not I) H (not G) (= M K)))
       (or N P Q (not O) (not L) (and J I (not H) (not G) (= K 3)))
       (or N O P Q (not L) (and J (not I) (not H) (not G) (= K 1)))
       (or N Q (not O) (not P) (not L) (and J I H (not G) (= K 0)))
       (or O P Q (not N) (not L) a!4)
       (or P Q (not N) (not O) (not L) a!5)
       (or O Q (not N) (not P) (not L) a!6)
       (or R S (not T) (not E) (and C (not B) A (= D 2)))
       (or R (not S) (not T) (not E) (and C B A (= D 4)))
       (or (not R) (not S) (not T) (not E) a!7)
       (or S (not R) (not T) (not E) a!8)
       (or N O (not Q) (not L) (and J (not I) G (= K 2)))
       (or N (not O) (not Q) (not L) (and J I G (= K 4)))
       (or (not N) (not O) (not Q) (not L) a!9)
       (or O (not N) (not Q) (not L) a!10)
       (or (not T) (not U))
       (or (not P) (not Q))
       (or E (and (= V D) (= R A) (= S B) (= T C) (= U F)))
       (or (not F) (not C))
       (or (not H) (not G))
       (or L (and (= M K) (= N J) (= O I) (= P H) (= Q G)))
       (not (= E L))))
      )
      (state G H F C D B A I J K)
    )
  )
)
(assert
  (forall ( (A Int) (B Bool) (C Bool) (D Bool) (E Bool) (F Bool) (G Bool) (H Bool) (I Bool) (J Int) ) 
    (=>
      (and
        (state E D I H J G F C B A)
        (and (not H) (not G) (not F) (not E) (= D true) (not C) (not B) (= I true))
      )
      false
    )
  )
)

(check-sat)
(exit)
